(set-logic ALL)
(set-option :produce-models true)
(declare-sort BoundSet 0)
(declare-sort UnboundSet 0)
(set-option :finite-model-find true)
(declare-fun IsSmall (BoundSet) Bool)
(declare-fun HasShortBrownHair (BoundSet) Bool)
(declare-fun IsPushing (BoundSet BoundSet) Bool)
(declare-fun IsOver (BoundSet BoundSet) Bool)
(declare-fun HasBrownLeaves (BoundSet BoundSet) Bool)
(declare-fun IsOutside (BoundSet) Bool)
(assert (not (=> (exists ((e BoundSet)) (exists ((d BoundSet)) (exists ((a BoundSet)) (exists ((c BoundSet)) (and (IsSmall a) (and (HasShortBrownHair a) (and (IsPushing a c) (and (IsOver c d) (HasBrownLeaves d e))))))))) (exists ((f BoundSet)) (IsOutside f)))))
(check-sat)
(get-model)